NAME : XML100_2153_08
DIMENSION : 101
NB_CLUSTERS : 16
CLUSTERING_ALG : KMeans
CLUSTERING_PARAMS : k(15)
CLUSTERS
1 0
2 11 25 31 58 70
3 39 55 71 89 91
4 6 13 17 30 34 44 49 67 69 73 76 99
5 15 16 19 27 35 77 100
6 12 26 29 32 37 57 65 85 88
7 5 9 10 36 41 42 43 78 81 87 98
8 3 38 46 54 60 68 79 80 97
9 1 14 75 82 95
10 20 48 66 72 84
11 7 21 63 64 74
12 51 52 53 56 96
13 18 28 45 47 86 94
14 2 8 40 59 61 93
15 4 23 33 50 90
16 22 24 62 83 92
EOF